c description: Random 3-CNF over 15 variables and 80 clauses
c generator: CNFgen (0.9.0)
c copyright: (C) 2012-2020 Massimo Lauria <massimo.lauria@uniroma1.it>
c url: https://massimolauria.net/cnfgen
c
p cnf 15 80
-1 6 13 0
-9 10 -13 0
6 -8 15 0
-10 -12 15 0
-2 -5 -9 0
-4 -6 8 0
2 -6 15 0
1 -13 14 0
4 7 -8 0
4 -9 -12 0
-9 10 12 0
3 7 8 0
6 9 12 0
1 -6 15 0
-3 6 -15 0
-2 -3 -7 0
2 -6 -10 0
-6 8 -10 0
3 -5 -12 0
10 11 -14 0
1 -5 15 0
6 10 -13 0
-2 -7 -15 0
2 9 -11 0
4 -9 -13 0
-1 14 15 0
-5 -6 13 0
5 -6 -14 0
-12 -13 -14 0
-7 9 -13 0
-5 8 10 0
4 5 -14 0
2 13 14 0
2 -8 -11 0
3 -4 5 0
-4 -11 14 0
2 -14 -15 0
2 9 -13 0
3 -4 -12 0
-1 7 11 0
-4 -5 13 0
-1 3 9 0
-6 -8 -11 0
4 6 -13 0
-3 -4 14 0
-4 -6 11 0
-4 -5 14 0
10 -11 -14 0
1 -10 12 0
-3 9 14 0
4 -5 14 0
9 -12 13 0
6 7 13 0
4 -14 15 0
-5 6 -15 0
5 -11 -13 0
2 -5 -13 0
-4 -13 14 0
-3 -9 14 0
4 12 -15 0
9 10 11 0
-2 9 -14 0
-1 -3 -14 0
-8 -11 14 0
1 2 6 0
-2 4 14 0
3 5 -10 0
5 6 -10 0
6 -10 15 0
1 5 -14 0
2 9 12 0
-2 12 13 0
4 5 -9 0
-4 5 9 0
-1 10 -14 0
2 -3 10 0
-4 -5 6 0
7 -11 12 0
10 11 -13 0
-3 -4 -7 0